************************************************************************
file with basedata            : mm4_.bas
initial value random generator: 28884
************************************************************************
projects                      :  1
jobs (incl. supersource/sink ):  12
horizon                       :  89
RESOURCES
  - renewable                 :  2   R
  - nonrenewable              :  2   N
  - doubly constrained        :  0   D
************************************************************************
PROJECT INFORMATION:
pronr.  #jobs rel.date duedate tardcost  MPM-Time
    1     10      0       22        9       22
************************************************************************
PRECEDENCE RELATIONS:
jobnr.    #modes  #successors   successors
   0        1          3           1   2   3
   1        3          1          10
   2        3          2           4   5
   3        3          3           4   6   9
   4        3          1           7
   5        3          2           7   9
   6        3          1           8
   7        3          2           8  10
   8        3          1          11
   9        3          1          11
  10        3          1          11
  11        1          0        
************************************************************************
REQUESTS/DURATIONS:
jobnr. mode duration  R 1  R 2  R 3  R 4  E(W 1)  E(W 2)  E(W 3)
------------------------------------------------------------------------
  0      1     0       0    0    0    0     0       0       0
  1      1     4       9    0    6    0    36      24       0
  2      1     6       0    1    0    9    12       0      54
  3      1     4       4    0    8    0    16      32       0
  4      1     7       0    6    8    0    42      56       0
  5      1     7       0    3    0    6    21       0      42
  6      1     2       5    0    8    0    10      16       0
  7      1     4       6    0    0    6    24       0      24
  8      1     2       7    0    0   10    14       0      20
  9      1     5       0    9    0    5    45       0      25
 10      1     5       9    0    8    0    45      40       0
 11      1     0       0    0    0    0     0       0       0
************************************************************************
RESOURCEAVAILABILITIES:
  R 1  R 2  R 3
   16   59   52
************************************************************************
RESOURCE LIMITS:
jobnr.  l(R 1)  u(R 1)  l(R 2)  u(R 2)  l(R 3)  u(R 3)
------------------------------------------------------------------------
  0        0       0       0       0       0       0
  1        5       9       3       6       0       0
  2        1       2       0       0       5       9
  3        2       4       4       8       0       0
  4        3       6       4       8       0       0
  5        2       3       0       0       3       6
  6        3       5       4       8       0       0
  7        3       6       0       0       3       6
  8        4       7       0       0       5      10
  9        5       9       0       0       3       5
 10        5       9       4       8       0       0
 11        0       0       0       0       0       0
************************************************************************
SCENARIOS:
------------------------------------------------------------------------
RESOURCE k = 1
s = 1: (0, 28, 16, 16, 38, 21, 13, 33, 16, 26, 40, 0)
s = 2: (0, 22, 21, 13, 33, 23, 12, 16, 14, 57, 46, 0)
s = 3: (0, 42, 14, 16, 72, 17, 11, 21, 12, 35, 35, 0)
s = 4: (0, 60, 16, 15, 46, 24, 7, 34, 15, 33, 55, 0)
s = 5: (0, 25, 11, 11, 44, 18, 21, 29, 13, 48, 34, 0)
s = 6: (0, 33, 16, 13, 31, 23, 7, 21, 8, 54, 75, 0)
s = 7: (0, 35, 16, 9, 44, 20, 14, 23, 9, 46, 68, 0)
s = 8: (0, 68, 9, 19, 50, 22, 10, 32, 22, 40, 58, 0)
s = 9: (0, 46, 11, 21, 35, 24, 9, 13, 12, 32, 46, 0)
s = 10: (0, 30, 10, 21, 41, 14, 9, 20, 11, 36, 25, 0)
s = 11: (0, 54, 15, 12, 49, 39, 8, 29, 12, 39, 34, 0)
s = 12: (0, 34, 13, 20, 36, 15, 9, 36, 21, 59, 49, 0)
s = 13: (0, 24, 12, 12, 40, 19, 6, 36, 13, 29, 34, 0)
s = 14: (0, 26, 17, 13, 41, 34, 8, 19, 17, 48, 29, 0)
s = 15: (0, 38, 8, 9, 42, 16, 12, 16, 14, 56, 54, 0)
s = 16: (0, 20, 15, 16, 36, 16, 7, 14, 9, 43, 55, 0)
s = 17: (0, 30, 10, 18, 28, 16, 7, 23, 20, 34, 48, 0)
s = 18: (0, 33, 14, 21, 42, 30, 8, 19, 11, 38, 31, 0)
s = 19: (0, 44, 17, 26, 52, 22, 12, 33, 21, 60, 40, 0)
s = 20: (0, 55, 11, 15, 42, 18, 9, 17, 18, 38, 47, 0)
s = 21: (0, 42, 12, 9, 38, 19, 12, 24, 14, 39, 44, 0)
s = 22: (0, 43, 7, 17, 61, 14, 15, 31, 12, 62, 38, 0)
s = 23: (0, 31, 15, 14, 45, 26, 6, 31, 8, 43, 35, 0)
s = 24: (0, 24, 17, 20, 22, 22, 14, 31, 11, 23, 45, 0)
s = 25: (0, 40, 14, 14, 65, 15, 8, 43, 14, 37, 37, 0)
s = 26: (0, 50, 9, 22, 57, 21, 9, 15, 9, 26, 38, 0)
s = 27: (0, 36, 14, 14, 26, 27, 11, 16, 12, 54, 63, 0)
s = 28: (0, 44, 7, 20, 58, 21, 8, 15, 19, 39, 63, 0)
s = 29: (0, 28, 11, 16, 34, 25, 8, 24, 16, 49, 53, 0)
s = 30: (0, 38, 17, 18, 32, 20, 11, 31, 16, 37, 37, 0)
s = 31: (0, 28, 13, 18, 38, 23, 6, 18, 18, 77, 52, 0)
s = 32: (0, 46, 12, 17, 58, 14, 12, 22, 14, 35, 42, 0)
s = 33: (0, 49, 14, 10, 28, 35, 15, 17, 17, 51, 49, 0)
s = 34: (0, 41, 9, 14, 53, 21, 10, 30, 8, 38, 47, 0)
s = 35: (0, 34, 11, 16, 31, 29, 10, 34, 11, 42, 55, 0)
s = 36: (0, 22, 16, 16, 48, 21, 11, 16, 14, 55, 28, 0)
s = 37: (0, 33, 9, 20, 35, 19, 9, 14, 19, 42, 40, 0)
s = 38: (0, 27, 10, 12, 38, 22, 13, 21, 19, 47, 36, 0)
s = 39: (0, 52, 20, 13, 31, 15, 17, 17, 13, 45, 33, 0)
s = 40: (0, 42, 9, 25, 50, 15, 8, 27, 10, 49, 62, 0)
s = 41: (0, 38, 13, 22, 69, 20, 9, 25, 24, 48, 48, 0)
s = 42: (0, 33, 13, 13, 49, 14, 13, 33, 13, 29, 38, 0)
s = 43: (0, 40, 19, 16, 39, 17, 7, 20, 10, 49, 46, 0)
s = 44: (0, 39, 9, 19, 35, 18, 6, 15, 17, 53, 67, 0)
s = 45: (0, 36, 9, 17, 58, 23, 11, 37, 19, 34, 40, 0)
s = 46: (0, 33, 12, 14, 59, 21, 13, 22, 24, 57, 40, 0)
s = 47: (0, 38, 11, 11, 44, 21, 9, 20, 15, 29, 37, 0)
s = 48: (0, 27, 21, 22, 67, 33, 8, 17, 13, 28, 49, 0)
s = 49: (0, 62, 12, 15, 40, 23, 7, 25, 16, 32, 58, 0)
s = 50: (0, 39, 11, 20, 38, 33, 8, 18, 12, 42, 46, 0)
s = 51: (0, 32, 11, 10, 43, 19, 15, 17, 16, 33, 50, 0)
s = 52: (0, 28, 13, 25, 42, 23, 13, 13, 26, 29, 63, 0)
s = 53: (0, 55, 14, 10, 30, 23, 8, 39, 11, 34, 67, 0)
s = 54: (0, 43, 14, 13, 30, 23, 8, 32, 15, 51, 36, 0)
s = 55: (0, 36, 14, 15, 37, 16, 11, 24, 13, 37, 37, 0)
s = 56: (0, 47, 10, 16, 31, 13, 15, 16, 16, 40, 45, 0)
s = 57: (0, 34, 10, 15, 27, 20, 6, 44, 9, 72, 49, 0)
s = 58: (0, 26, 14, 13, 33, 27, 8, 15, 11, 62, 27, 0)
s = 59: (0, 27, 14, 16, 26, 19, 8, 28, 18, 45, 35, 0)
s = 60: (0, 30, 8, 12, 49, 24, 12, 25, 11, 49, 64, 0)
s = 61: (0, 49, 11, 17, 54, 30, 13, 19, 14, 34, 45, 0)
s = 62: (0, 24, 11, 16, 40, 15, 13, 20, 13, 47, 76, 0)
s = 63: (0, 49, 22, 16, 44, 27, 8, 14, 17, 54, 42, 0)
s = 64: (0, 52, 16, 15, 25, 13, 6, 24, 13, 45, 37, 0)
s = 65: (0, 47, 11, 15, 39, 25, 11, 15, 17, 36, 45, 0)
s = 66: (0, 30, 18, 16, 56, 28, 12, 35, 17, 47, 64, 0)
s = 67: (0, 43, 13, 21, 44, 16, 7, 17, 13, 52, 42, 0)
s = 68: (0, 25, 19, 10, 31, 31, 14, 34, 13, 72, 58, 0)
s = 69: (0, 34, 13, 17, 33, 21, 11, 20, 15, 45, 34, 0)
s = 70: (0, 40, 18, 15, 30, 22, 11, 27, 19, 51, 42, 0)
s = 71: (0, 48, 16, 13, 37, 25, 9, 25, 21, 37, 83, 0)
s = 72: (0, 19, 13, 21, 37, 26, 8, 29, 14, 60, 47, 0)
s = 73: (0, 23, 11, 11, 36, 26, 8, 25, 11, 31, 55, 0)
s = 74: (0, 23, 11, 13, 47, 16, 11, 28, 13, 50, 66, 0)
s = 75: (0, 37, 12, 12, 29, 24, 9, 16, 12, 55, 33, 0)
s = 76: (0, 27, 10, 25, 38, 29, 8, 21, 12, 36, 63, 0)
s = 77: (0, 42, 10, 19, 32, 22, 9, 25, 24, 56, 62, 0)
s = 78: (0, 42, 10, 17, 47, 29, 13, 17, 9, 34, 30, 0)
s = 79: (0, 47, 10, 12, 42, 19, 11, 29, 16, 37, 57, 0)
s = 80: (0, 49, 10, 23, 50, 29, 14, 21, 18, 31, 42, 0)
s = 81: (0, 29, 8, 10, 54, 25, 7, 22, 16, 32, 49, 0)
s = 82: (0, 41, 8, 12, 34, 12, 10, 22, 14, 44, 74, 0)
s = 83: (0, 40, 14, 21, 50, 16, 16, 19, 14, 53, 29, 0)
s = 84: (0, 46, 12, 17, 54, 15, 7, 23, 19, 46, 33, 0)
s = 85: (0, 34, 19, 25, 51, 23, 20, 23, 18, 44, 48, 0)
s = 86: (0, 29, 14, 19, 42, 16, 12, 24, 20, 33, 51, 0)
s = 87: (0, 46, 7, 20, 44, 22, 9, 15, 10, 28, 66, 0)
s = 88: (0, 47, 11, 17, 33, 21, 8, 16, 22, 53, 59, 0)
s = 89: (0, 25, 19, 13, 52, 21, 7, 24, 13, 41, 42, 0)
s = 90: (0, 45, 12, 19, 59, 24, 9, 23, 16, 39, 49, 0)
s = 91: (0, 35, 16, 14, 42, 31, 13, 24, 13, 62, 49, 0)
s = 92: (0, 48, 10, 19, 39, 37, 16, 30, 18, 38, 43, 0)
s = 93: (0, 27, 17, 17, 32, 22, 10, 25, 9, 31, 33, 0)
s = 94: (0, 69, 16, 11, 56, 16, 10, 15, 13, 28, 57, 0)
s = 95: (0, 43, 14, 14, 43, 12, 14, 18, 16, 61, 48, 0)
s = 96: (0, 39, 11, 25, 56, 18, 12, 18, 14, 36, 39, 0)
s = 97: (0, 45, 17, 29, 31, 28, 13, 23, 16, 43, 62, 0)
s = 98: (0, 27, 19, 21, 35, 21, 14, 20, 10, 36, 38, 0)
s = 99: (0, 52, 14, 22, 40, 25, 16, 15, 8, 52, 33, 0)
s = 100: (0, 45, 15, 11, 36, 15, 10, 17, 19, 49, 46, 0)
s = 101: (0, 23, 12, 17, 36, 20, 14, 23, 20, 26, 49, 0)
s = 102: (0, 32, 20, 17, 42, 18, 11, 22, 10, 49, 53, 0)
s = 103: (0, 21, 11, 17, 35, 24, 11, 22, 21, 28, 36, 0)
s = 104: (0, 30, 9, 16, 26, 26, 12, 39, 15, 48, 65, 0)
s = 105: (0, 28, 14, 15, 47, 19, 12, 30, 10, 47, 44, 0)
s = 106: (0, 30, 9, 16, 31, 15, 9, 33, 13, 51, 71, 0)
s = 107: (0, 42, 12, 18, 57, 17, 7, 19, 18, 54, 24, 0)
s = 108: (0, 57, 8, 13, 33, 27, 12, 40, 12, 39, 46, 0)
s = 109: (0, 44, 11, 21, 36, 25, 15, 16, 17, 30, 61, 0)
s = 110: (0, 30, 12, 17, 44, 26, 10, 21, 8, 29, 58, 0)
s = 111: (0, 28, 13, 11, 45, 26, 8, 24, 13, 32, 56, 0)
s = 112: (0, 38, 13, 15, 32, 20, 10, 17, 21, 44, 71, 0)
s = 113: (0, 42, 16, 14, 43, 29, 9, 24, 15, 29, 43, 0)
s = 114: (0, 48, 9, 12, 31, 29, 11, 23, 14, 68, 35, 0)
s = 115: (0, 53, 14, 18, 32, 27, 10, 22, 10, 49, 57, 0)
s = 116: (0, 28, 12, 10, 41, 26, 9, 27, 10, 53, 39, 0)
s = 117: (0, 37, 14, 19, 28, 18, 7, 23, 14, 43, 31, 0)
s = 118: (0, 25, 11, 19, 40, 19, 10, 32, 9, 45, 55, 0)
s = 119: (0, 41, 15, 14, 38, 15, 11, 15, 9, 29, 31, 0)
s = 120: (0, 38, 11, 18, 37, 25, 10, 26, 11, 29, 36, 0)
s = 121: (0, 52, 11, 13, 30, 28, 8, 31, 26, 25, 54, 0)
s = 122: (0, 25, 12, 18, 42, 18, 15, 43, 14, 44, 29, 0)
s = 123: (0, 26, 19, 18, 57, 23, 6, 26, 17, 52, 57, 0)
s = 124: (0, 27, 12, 13, 51, 20, 7, 28, 12, 36, 48, 0)
s = 125: (0, 26, 10, 11, 69, 14, 12, 27, 12, 32, 66, 0)
s = 126: (0, 38, 17, 15, 66, 17, 13, 27, 20, 31, 30, 0)
s = 127: (0, 46, 13, 15, 43, 14, 7, 27, 22, 67, 58, 0)
s = 128: (0, 45, 14, 12, 46, 32, 11, 26, 21, 74, 31, 0)
s = 129: (0, 39, 14, 30, 41, 19, 8, 17, 10, 26, 46, 0)
s = 130: (0, 30, 11, 11, 36, 16, 9, 18, 26, 36, 35, 0)
s = 131: (0, 38, 14, 21, 28, 18, 6, 35, 11, 37, 51, 0)
s = 132: (0, 29, 24, 25, 44, 17, 11, 18, 11, 39, 37, 0)
s = 133: (0, 29, 23, 19, 59, 15, 10, 24, 15, 56, 45, 0)
s = 134: (0, 22, 15, 17, 46, 15, 11, 28, 11, 39, 46, 0)
s = 135: (0, 49, 13, 17, 49, 19, 12, 14, 9, 31, 34, 0)
s = 136: (0, 26, 17, 11, 65, 27, 14, 23, 12, 36, 45, 0)
s = 137: (0, 44, 14, 13, 58, 26, 7, 31, 10, 28, 50, 0)
s = 138: (0, 50, 16, 10, 69, 25, 8, 37, 17, 31, 35, 0)
s = 139: (0, 30, 9, 13, 55, 13, 10, 38, 17, 40, 42, 0)
s = 140: (0, 25, 10, 19, 42, 18, 14, 18, 10, 41, 45, 0)
s = 141: (0, 26, 11, 17, 26, 16, 8, 24, 14, 38, 54, 0)
s = 142: (0, 32, 9, 18, 31, 18, 13, 19, 12, 63, 48, 0)
s = 143: (0, 37, 11, 16, 33, 24, 11, 23, 16, 36, 55, 0)
s = 144: (0, 32, 14, 10, 33, 25, 6, 22, 15, 66, 27, 0)
s = 145: (0, 42, 10, 15, 40, 21, 15, 34, 15, 34, 42, 0)
s = 146: (0, 54, 9, 26, 70, 14, 13, 29, 9, 38, 35, 0)
s = 147: (0, 39, 16, 11, 33, 14, 9, 39, 11, 66, 45, 0)
s = 148: (0, 23, 11, 21, 34, 23, 17, 25, 21, 45, 54, 0)
s = 149: (0, 63, 14, 18, 48, 14, 10, 19, 17, 42, 40, 0)
s = 150: (0, 49, 13, 17, 41, 26, 9, 27, 16, 39, 64, 0)
s = 151: (0, 34, 16, 18, 54, 22, 6, 23, 10, 45, 27, 0)
s = 152: (0, 29, 10, 18, 41, 19, 7, 23, 11, 32, 46, 0)
s = 153: (0, 35, 18, 10, 41, 15, 11, 20, 23, 31, 60, 0)
s = 154: (0, 36, 13, 19, 36, 30, 10, 21, 16, 44, 65, 0)
s = 155: (0, 38, 15, 13, 55, 16, 14, 29, 15, 44, 27, 0)
s = 156: (0, 32, 20, 13, 41, 18, 12, 17, 23, 39, 42, 0)
s = 157: (0, 33, 10, 17, 44, 17, 13, 28, 11, 81, 39, 0)
s = 158: (0, 33, 11, 17, 30, 11, 13, 15, 17, 42, 48, 0)
s = 159: (0, 43, 18, 17, 39, 15, 7, 17, 16, 59, 36, 0)
s = 160: (0, 44, 10, 21, 50, 17, 9, 15, 13, 59, 55, 0)
s = 161: (0, 47, 9, 16, 61, 23, 9, 39, 14, 41, 37, 0)
s = 162: (0, 38, 20, 13, 34, 26, 15, 24, 19, 70, 49, 0)
s = 163: (0, 26, 13, 14, 64, 23, 12, 17, 16, 54, 80, 0)
s = 164: (0, 20, 9, 16, 54, 20, 12, 17, 11, 27, 36, 0)
s = 165: (0, 32, 11, 11, 41, 18, 9, 23, 8, 49, 50, 0)
s = 166: (0, 39, 14, 26, 42, 21, 11, 21, 15, 45, 57, 0)
s = 167: (0, 53, 14, 13, 26, 20, 10, 18, 17, 41, 66, 0)
s = 168: (0, 37, 18, 16, 34, 18, 11, 18, 14, 61, 63, 0)
s = 169: (0, 36, 13, 11, 34, 17, 12, 27, 17, 64, 35, 0)
s = 170: (0, 32, 8, 10, 32, 21, 6, 22, 21, 30, 31, 0)
s = 171: (0, 44, 10, 10, 38, 18, 10, 29, 24, 43, 32, 0)
s = 172: (0, 41, 15, 12, 76, 21, 9, 25, 12, 48, 31, 0)
s = 173: (0, 26, 10, 17, 33, 22, 13, 28, 12, 43, 39, 0)
s = 174: (0, 23, 14, 22, 66, 20, 13, 14, 13, 30, 38, 0)
s = 175: (0, 35, 16, 13, 44, 18, 18, 19, 20, 71, 34, 0)
s = 176: (0, 32, 14, 12, 26, 31, 9, 37, 16, 36, 40, 0)
s = 177: (0, 50, 8, 16, 49, 32, 10, 41, 9, 36, 33, 0)
s = 178: (0, 31, 8, 15, 33, 25, 8, 22, 14, 58, 59, 0)
s = 179: (0, 40, 9, 12, 49, 29, 7, 28, 12, 40, 34, 0)
s = 180: (0, 33, 15, 23, 42, 20, 11, 25, 17, 31, 57, 0)
s = 181: (0, 32, 9, 18, 40, 23, 10, 14, 11, 41, 67, 0)
s = 182: (0, 25, 12, 18, 61, 17, 10, 25, 16, 47, 55, 0)
s = 183: (0, 21, 13, 17, 40, 26, 11, 20, 15, 48, 45, 0)
s = 184: (0, 29, 14, 15, 35, 24, 13, 17, 19, 34, 36, 0)
s = 185: (0, 48, 10, 13, 33, 20, 10, 18, 11, 32, 56, 0)
s = 186: (0, 64, 10, 22, 39, 25, 17, 32, 13, 55, 28, 0)
s = 187: (0, 27, 7, 18, 57, 17, 11, 23, 16, 45, 25, 0)
s = 188: (0, 26, 14, 11, 54, 14, 7, 28, 17, 39, 45, 0)
s = 189: (0, 32, 14, 14, 28, 33, 9, 24, 16, 32, 37, 0)
s = 190: (0, 20, 13, 16, 55, 22, 6, 20, 17, 56, 38, 0)
s = 191: (0, 43, 16, 17, 64, 25, 12, 17, 11, 31, 44, 0)
s = 192: (0, 48, 9, 13, 24, 29, 12, 35, 13, 45, 47, 0)
s = 193: (0, 29, 14, 21, 48, 18, 9, 23, 18, 34, 31, 0)
s = 194: (0, 41, 11, 19, 58, 25, 11, 23, 15, 38, 36, 0)
s = 195: (0, 35, 12, 27, 60, 21, 9, 22, 10, 36, 34, 0)
s = 196: (0, 34, 10, 19, 42, 16, 8, 29, 12, 40, 40, 0)
s = 197: (0, 39, 13, 10, 44, 21, 9, 27, 11, 53, 33, 0)
s = 198: (0, 50, 11, 15, 49, 22, 11, 31, 15, 27, 45, 0)
s = 199: (0, 43, 12, 25, 44, 15, 7, 18, 11, 52, 68, 0)
s = 200: (0, 24, 23, 15, 51, 28, 8, 22, 20, 30, 37, 0)
------------------------------------------------------------------------
RESOURCE k = 2
s = 1: (0, 19, 0, 31, 51, 0, 20, 0, 0, 0, 36, 0)
s = 2: (0, 15, 0, 26, 44, 0, 18, 0, 0, 0, 41, 0)
s = 3: (0, 28, 0, 32, 96, 0, 17, 0, 0, 0, 31, 0)
s = 4: (0, 40, 0, 30, 61, 0, 12, 0, 0, 0, 49, 0)
s = 5: (0, 17, 0, 22, 58, 0, 33, 0, 0, 0, 31, 0)
s = 6: (0, 22, 0, 25, 41, 0, 11, 0, 0, 0, 67, 0)
s = 7: (0, 23, 0, 18, 59, 0, 23, 0, 0, 0, 60, 0)
s = 8: (0, 46, 0, 37, 67, 0, 15, 0, 0, 0, 52, 0)
s = 9: (0, 31, 0, 42, 46, 0, 15, 0, 0, 0, 41, 0)
s = 10: (0, 20, 0, 42, 55, 0, 14, 0, 0, 0, 23, 0)
s = 11: (0, 36, 0, 24, 66, 0, 13, 0, 0, 0, 30, 0)
s = 12: (0, 23, 0, 39, 47, 0, 14, 0, 0, 0, 44, 0)
s = 13: (0, 16, 0, 24, 53, 0, 9, 0, 0, 0, 31, 0)
s = 14: (0, 18, 0, 26, 54, 0, 13, 0, 0, 0, 26, 0)
s = 15: (0, 26, 0, 18, 56, 0, 19, 0, 0, 0, 48, 0)
s = 16: (0, 14, 0, 31, 48, 0, 11, 0, 0, 0, 49, 0)
s = 17: (0, 20, 0, 35, 37, 0, 11, 0, 0, 0, 42, 0)
s = 18: (0, 22, 0, 41, 56, 0, 13, 0, 0, 0, 28, 0)
s = 19: (0, 30, 0, 51, 69, 0, 19, 0, 0, 0, 36, 0)
s = 20: (0, 37, 0, 29, 55, 0, 15, 0, 0, 0, 42, 0)
s = 21: (0, 28, 0, 18, 51, 0, 19, 0, 0, 0, 40, 0)
s = 22: (0, 29, 0, 34, 81, 0, 24, 0, 0, 0, 34, 0)
s = 23: (0, 21, 0, 27, 59, 0, 10, 0, 0, 0, 32, 0)
s = 24: (0, 16, 0, 40, 29, 0, 23, 0, 0, 0, 40, 0)
s = 25: (0, 27, 0, 27, 86, 0, 13, 0, 0, 0, 33, 0)
s = 26: (0, 33, 0, 43, 76, 0, 14, 0, 0, 0, 34, 0)
s = 27: (0, 24, 0, 28, 34, 0, 17, 0, 0, 0, 56, 0)
s = 28: (0, 29, 0, 39, 77, 0, 12, 0, 0, 0, 56, 0)
s = 29: (0, 19, 0, 32, 46, 0, 12, 0, 0, 0, 47, 0)
s = 30: (0, 26, 0, 36, 43, 0, 18, 0, 0, 0, 33, 0)
s = 31: (0, 19, 0, 35, 51, 0, 10, 0, 0, 0, 46, 0)
s = 32: (0, 31, 0, 34, 77, 0, 20, 0, 0, 0, 38, 0)
s = 33: (0, 33, 0, 20, 37, 0, 23, 0, 0, 0, 44, 0)
s = 34: (0, 27, 0, 27, 70, 0, 15, 0, 0, 0, 42, 0)
s = 35: (0, 23, 0, 32, 41, 0, 15, 0, 0, 0, 49, 0)
s = 36: (0, 15, 0, 32, 64, 0, 17, 0, 0, 0, 25, 0)
s = 37: (0, 22, 0, 40, 47, 0, 15, 0, 0, 0, 35, 0)
s = 38: (0, 18, 0, 24, 50, 0, 20, 0, 0, 0, 32, 0)
s = 39: (0, 35, 0, 25, 41, 0, 28, 0, 0, 0, 30, 0)
s = 40: (0, 28, 0, 49, 66, 0, 12, 0, 0, 0, 55, 0)
s = 41: (0, 26, 0, 43, 92, 0, 14, 0, 0, 0, 43, 0)
s = 42: (0, 22, 0, 26, 65, 0, 20, 0, 0, 0, 33, 0)
s = 43: (0, 27, 0, 31, 52, 0, 11, 0, 0, 0, 41, 0)
s = 44: (0, 26, 0, 37, 47, 0, 10, 0, 0, 0, 59, 0)
s = 45: (0, 24, 0, 34, 77, 0, 17, 0, 0, 0, 36, 0)
s = 46: (0, 22, 0, 28, 79, 0, 21, 0, 0, 0, 36, 0)
s = 47: (0, 26, 0, 22, 58, 0, 13, 0, 0, 0, 33, 0)
s = 48: (0, 18, 0, 43, 90, 0, 13, 0, 0, 0, 44, 0)
s = 49: (0, 42, 0, 29, 53, 0, 10, 0, 0, 0, 51, 0)
s = 50: (0, 26, 0, 40, 50, 0, 13, 0, 0, 0, 41, 0)
s = 51: (0, 22, 0, 20, 58, 0, 23, 0, 0, 0, 44, 0)
s = 52: (0, 19, 0, 49, 56, 0, 20, 0, 0, 0, 56, 0)
s = 53: (0, 37, 0, 20, 40, 0, 13, 0, 0, 0, 60, 0)
s = 54: (0, 29, 0, 26, 40, 0, 13, 0, 0, 0, 32, 0)
s = 55: (0, 24, 0, 29, 49, 0, 17, 0, 0, 0, 33, 0)
s = 56: (0, 31, 0, 32, 42, 0, 24, 0, 0, 0, 40, 0)
s = 57: (0, 23, 0, 30, 36, 0, 10, 0, 0, 0, 43, 0)
s = 58: (0, 18, 0, 25, 43, 0, 12, 0, 0, 0, 24, 0)
s = 59: (0, 18, 0, 31, 34, 0, 13, 0, 0, 0, 31, 0)
s = 60: (0, 20, 0, 23, 65, 0, 19, 0, 0, 0, 57, 0)
s = 61: (0, 33, 0, 33, 71, 0, 21, 0, 0, 0, 40, 0)
s = 62: (0, 16, 0, 31, 53, 0, 21, 0, 0, 0, 68, 0)
s = 63: (0, 33, 0, 31, 58, 0, 13, 0, 0, 0, 37, 0)
s = 64: (0, 35, 0, 30, 33, 0, 9, 0, 0, 0, 33, 0)
s = 65: (0, 31, 0, 29, 51, 0, 18, 0, 0, 0, 40, 0)
s = 66: (0, 20, 0, 31, 75, 0, 20, 0, 0, 0, 57, 0)
s = 67: (0, 29, 0, 42, 58, 0, 10, 0, 0, 0, 37, 0)
s = 68: (0, 17, 0, 20, 41, 0, 23, 0, 0, 0, 52, 0)
s = 69: (0, 23, 0, 34, 43, 0, 18, 0, 0, 0, 30, 0)
s = 70: (0, 27, 0, 30, 40, 0, 17, 0, 0, 0, 37, 0)
s = 71: (0, 32, 0, 26, 49, 0, 15, 0, 0, 0, 74, 0)
s = 72: (0, 13, 0, 41, 49, 0, 12, 0, 0, 0, 41, 0)
s = 73: (0, 15, 0, 22, 48, 0, 13, 0, 0, 0, 49, 0)
s = 74: (0, 15, 0, 25, 63, 0, 18, 0, 0, 0, 59, 0)
s = 75: (0, 25, 0, 24, 38, 0, 14, 0, 0, 0, 30, 0)
s = 76: (0, 18, 0, 49, 50, 0, 12, 0, 0, 0, 56, 0)
s = 77: (0, 28, 0, 38, 42, 0, 15, 0, 0, 0, 55, 0)
s = 78: (0, 28, 0, 34, 63, 0, 20, 0, 0, 0, 27, 0)
s = 79: (0, 31, 0, 23, 56, 0, 18, 0, 0, 0, 51, 0)
s = 80: (0, 33, 0, 46, 66, 0, 22, 0, 0, 0, 38, 0)
s = 81: (0, 20, 0, 20, 71, 0, 10, 0, 0, 0, 43, 0)
s = 82: (0, 28, 0, 24, 45, 0, 15, 0, 0, 0, 66, 0)
s = 83: (0, 27, 0, 41, 67, 0, 26, 0, 0, 0, 26, 0)
s = 84: (0, 31, 0, 33, 71, 0, 11, 0, 0, 0, 29, 0)
s = 85: (0, 23, 0, 50, 67, 0, 31, 0, 0, 0, 42, 0)
s = 86: (0, 20, 0, 38, 56, 0, 19, 0, 0, 0, 46, 0)
s = 87: (0, 31, 0, 40, 58, 0, 15, 0, 0, 0, 59, 0)
s = 88: (0, 31, 0, 33, 43, 0, 12, 0, 0, 0, 53, 0)
s = 89: (0, 17, 0, 25, 69, 0, 11, 0, 0, 0, 37, 0)
s = 90: (0, 30, 0, 37, 78, 0, 14, 0, 0, 0, 44, 0)
s = 91: (0, 24, 0, 28, 56, 0, 20, 0, 0, 0, 44, 0)
s = 92: (0, 32, 0, 38, 51, 0, 25, 0, 0, 0, 38, 0)
s = 93: (0, 18, 0, 34, 43, 0, 16, 0, 0, 0, 29, 0)
s = 94: (0, 46, 0, 21, 74, 0, 15, 0, 0, 0, 51, 0)
s = 95: (0, 29, 0, 28, 57, 0, 22, 0, 0, 0, 43, 0)
s = 96: (0, 26, 0, 49, 75, 0, 18, 0, 0, 0, 34, 0)
s = 97: (0, 30, 0, 57, 41, 0, 20, 0, 0, 0, 55, 0)
s = 98: (0, 18, 0, 41, 46, 0, 23, 0, 0, 0, 34, 0)
s = 99: (0, 35, 0, 44, 53, 0, 26, 0, 0, 0, 29, 0)
s = 100: (0, 30, 0, 22, 48, 0, 15, 0, 0, 0, 41, 0)
s = 101: (0, 16, 0, 33, 48, 0, 23, 0, 0, 0, 43, 0)
s = 102: (0, 22, 0, 33, 56, 0, 17, 0, 0, 0, 47, 0)
s = 103: (0, 14, 0, 33, 46, 0, 17, 0, 0, 0, 32, 0)
s = 104: (0, 20, 0, 32, 35, 0, 19, 0, 0, 0, 58, 0)
s = 105: (0, 19, 0, 30, 63, 0, 18, 0, 0, 0, 39, 0)
s = 106: (0, 20, 0, 31, 41, 0, 13, 0, 0, 0, 63, 0)
s = 107: (0, 28, 0, 35, 76, 0, 11, 0, 0, 0, 22, 0)
s = 108: (0, 38, 0, 25, 43, 0, 19, 0, 0, 0, 41, 0)
s = 109: (0, 29, 0, 42, 48, 0, 24, 0, 0, 0, 55, 0)
s = 110: (0, 20, 0, 33, 59, 0, 16, 0, 0, 0, 51, 0)
s = 111: (0, 19, 0, 22, 60, 0, 12, 0, 0, 0, 50, 0)
s = 112: (0, 26, 0, 30, 43, 0, 16, 0, 0, 0, 63, 0)
s = 113: (0, 28, 0, 28, 57, 0, 14, 0, 0, 0, 38, 0)
s = 114: (0, 32, 0, 24, 41, 0, 18, 0, 0, 0, 31, 0)
s = 115: (0, 35, 0, 35, 43, 0, 16, 0, 0, 0, 51, 0)
s = 116: (0, 19, 0, 19, 55, 0, 14, 0, 0, 0, 35, 0)
s = 117: (0, 25, 0, 38, 37, 0, 12, 0, 0, 0, 28, 0)
s = 118: (0, 17, 0, 38, 53, 0, 16, 0, 0, 0, 49, 0)
s = 119: (0, 28, 0, 27, 50, 0, 17, 0, 0, 0, 28, 0)
s = 120: (0, 26, 0, 36, 49, 0, 16, 0, 0, 0, 32, 0)
s = 121: (0, 35, 0, 26, 40, 0, 13, 0, 0, 0, 48, 0)
s = 122: (0, 17, 0, 36, 55, 0, 24, 0, 0, 0, 26, 0)
s = 123: (0, 17, 0, 35, 75, 0, 10, 0, 0, 0, 51, 0)
s = 124: (0, 18, 0, 26, 68, 0, 11, 0, 0, 0, 42, 0)
s = 125: (0, 18, 0, 22, 91, 0, 19, 0, 0, 0, 58, 0)
s = 126: (0, 26, 0, 29, 87, 0, 20, 0, 0, 0, 27, 0)
s = 127: (0, 31, 0, 30, 57, 0, 12, 0, 0, 0, 52, 0)
s = 128: (0, 30, 0, 24, 61, 0, 18, 0, 0, 0, 27, 0)
s = 129: (0, 26, 0, 59, 55, 0, 13, 0, 0, 0, 41, 0)
s = 130: (0, 20, 0, 22, 47, 0, 15, 0, 0, 0, 31, 0)
s = 131: (0, 25, 0, 42, 37, 0, 9, 0, 0, 0, 45, 0)
s = 132: (0, 20, 0, 49, 58, 0, 17, 0, 0, 0, 33, 0)
s = 133: (0, 20, 0, 38, 79, 0, 16, 0, 0, 0, 40, 0)
s = 134: (0, 15, 0, 33, 61, 0, 17, 0, 0, 0, 41, 0)
s = 135: (0, 33, 0, 34, 65, 0, 19, 0, 0, 0, 30, 0)
s = 136: (0, 18, 0, 22, 87, 0, 21, 0, 0, 0, 40, 0)
s = 137: (0, 29, 0, 26, 77, 0, 11, 0, 0, 0, 44, 0)
s = 138: (0, 34, 0, 19, 92, 0, 12, 0, 0, 0, 31, 0)
s = 139: (0, 20, 0, 25, 73, 0, 16, 0, 0, 0, 38, 0)
s = 140: (0, 17, 0, 37, 56, 0, 22, 0, 0, 0, 40, 0)
s = 141: (0, 17, 0, 33, 35, 0, 12, 0, 0, 0, 48, 0)
s = 142: (0, 22, 0, 35, 41, 0, 21, 0, 0, 0, 43, 0)
s = 143: (0, 25, 0, 31, 44, 0, 17, 0, 0, 0, 49, 0)
s = 144: (0, 21, 0, 19, 44, 0, 10, 0, 0, 0, 24, 0)
s = 145: (0, 28, 0, 29, 54, 0, 23, 0, 0, 0, 37, 0)
s = 146: (0, 36, 0, 52, 93, 0, 21, 0, 0, 0, 31, 0)
s = 147: (0, 26, 0, 21, 44, 0, 13, 0, 0, 0, 40, 0)
s = 148: (0, 15, 0, 41, 45, 0, 27, 0, 0, 0, 48, 0)
s = 149: (0, 42, 0, 35, 64, 0, 15, 0, 0, 0, 35, 0)
s = 150: (0, 33, 0, 33, 55, 0, 15, 0, 0, 0, 57, 0)
s = 151: (0, 23, 0, 35, 72, 0, 9, 0, 0, 0, 24, 0)
s = 152: (0, 19, 0, 35, 54, 0, 10, 0, 0, 0, 41, 0)
s = 153: (0, 23, 0, 20, 54, 0, 18, 0, 0, 0, 53, 0)
s = 154: (0, 24, 0, 38, 48, 0, 16, 0, 0, 0, 58, 0)
s = 155: (0, 26, 0, 25, 73, 0, 22, 0, 0, 0, 24, 0)
s = 156: (0, 21, 0, 26, 54, 0, 19, 0, 0, 0, 37, 0)
s = 157: (0, 22, 0, 33, 58, 0, 21, 0, 0, 0, 35, 0)
s = 158: (0, 22, 0, 34, 40, 0, 21, 0, 0, 0, 43, 0)
s = 159: (0, 29, 0, 34, 52, 0, 10, 0, 0, 0, 32, 0)
s = 160: (0, 30, 0, 42, 66, 0, 14, 0, 0, 0, 49, 0)
s = 161: (0, 31, 0, 32, 81, 0, 14, 0, 0, 0, 33, 0)
s = 162: (0, 25, 0, 25, 46, 0, 24, 0, 0, 0, 44, 0)
s = 163: (0, 17, 0, 28, 85, 0, 19, 0, 0, 0, 71, 0)
s = 164: (0, 14, 0, 31, 72, 0, 19, 0, 0, 0, 32, 0)
s = 165: (0, 21, 0, 21, 54, 0, 14, 0, 0, 0, 45, 0)
s = 166: (0, 26, 0, 52, 56, 0, 17, 0, 0, 0, 51, 0)
s = 167: (0, 36, 0, 26, 35, 0, 16, 0, 0, 0, 58, 0)
s = 168: (0, 25, 0, 32, 45, 0, 18, 0, 0, 0, 56, 0)
s = 169: (0, 24, 0, 21, 46, 0, 20, 0, 0, 0, 31, 0)
s = 170: (0, 22, 0, 20, 43, 0, 10, 0, 0, 0, 28, 0)
s = 171: (0, 29, 0, 19, 51, 0, 15, 0, 0, 0, 29, 0)
s = 172: (0, 27, 0, 23, 101, 0, 13, 0, 0, 0, 28, 0)
s = 173: (0, 17, 0, 33, 44, 0, 20, 0, 0, 0, 35, 0)
s = 174: (0, 16, 0, 43, 88, 0, 21, 0, 0, 0, 34, 0)
s = 175: (0, 24, 0, 25, 58, 0, 29, 0, 0, 0, 30, 0)
s = 176: (0, 22, 0, 23, 35, 0, 15, 0, 0, 0, 36, 0)
s = 177: (0, 34, 0, 31, 65, 0, 16, 0, 0, 0, 29, 0)
s = 178: (0, 21, 0, 30, 44, 0, 13, 0, 0, 0, 52, 0)
s = 179: (0, 27, 0, 23, 65, 0, 10, 0, 0, 0, 30, 0)
s = 180: (0, 22, 0, 46, 55, 0, 17, 0, 0, 0, 51, 0)
s = 181: (0, 22, 0, 36, 54, 0, 15, 0, 0, 0, 60, 0)
s = 182: (0, 17, 0, 35, 81, 0, 16, 0, 0, 0, 49, 0)
s = 183: (0, 14, 0, 33, 53, 0, 17, 0, 0, 0, 40, 0)
s = 184: (0, 19, 0, 30, 46, 0, 21, 0, 0, 0, 32, 0)
s = 185: (0, 32, 0, 25, 43, 0, 15, 0, 0, 0, 50, 0)
s = 186: (0, 43, 0, 44, 52, 0, 26, 0, 0, 0, 25, 0)
s = 187: (0, 18, 0, 35, 76, 0, 17, 0, 0, 0, 22, 0)
s = 188: (0, 18, 0, 21, 71, 0, 11, 0, 0, 0, 40, 0)
s = 189: (0, 22, 0, 28, 37, 0, 13, 0, 0, 0, 33, 0)
s = 190: (0, 13, 0, 32, 73, 0, 9, 0, 0, 0, 34, 0)
s = 191: (0, 29, 0, 34, 85, 0, 18, 0, 0, 0, 40, 0)
s = 192: (0, 32, 0, 26, 32, 0, 19, 0, 0, 0, 42, 0)
s = 193: (0, 20, 0, 42, 64, 0, 14, 0, 0, 0, 28, 0)
s = 194: (0, 27, 0, 37, 78, 0, 18, 0, 0, 0, 32, 0)
s = 195: (0, 24, 0, 54, 80, 0, 14, 0, 0, 0, 31, 0)
s = 196: (0, 23, 0, 37, 55, 0, 13, 0, 0, 0, 36, 0)
s = 197: (0, 26, 0, 20, 59, 0, 15, 0, 0, 0, 30, 0)
s = 198: (0, 34, 0, 30, 65, 0, 18, 0, 0, 0, 40, 0)
s = 199: (0, 29, 0, 49, 58, 0, 11, 0, 0, 0, 60, 0)
s = 200: (0, 16, 0, 29, 68, 0, 12, 0, 0, 0, 33, 0)
------------------------------------------------------------------------
RESOURCE k = 3
s = 1: (0, 0, 71, 0, 0, 42, 0, 33, 22, 15, 0, 0)
s = 2: (0, 0, 94, 0, 0, 45, 0, 16, 20, 32, 0, 0)
s = 3: (0, 0, 63, 0, 0, 33, 0, 21, 17, 19, 0, 0)
s = 4: (0, 0, 71, 0, 0, 47, 0, 34, 22, 18, 0, 0)
s = 5: (0, 0, 49, 0, 0, 36, 0, 29, 19, 27, 0, 0)
s = 6: (0, 0, 69, 0, 0, 45, 0, 21, 12, 30, 0, 0)
s = 7: (0, 0, 70, 0, 0, 39, 0, 23, 12, 26, 0, 0)
s = 8: (0, 0, 40, 0, 0, 44, 0, 32, 32, 22, 0, 0)
s = 9: (0, 0, 48, 0, 0, 47, 0, 13, 17, 18, 0, 0)
s = 10: (0, 0, 44, 0, 0, 28, 0, 20, 16, 20, 0, 0)
s = 11: (0, 0, 68, 0, 0, 77, 0, 29, 17, 22, 0, 0)
s = 12: (0, 0, 55, 0, 0, 29, 0, 36, 30, 33, 0, 0)
s = 13: (0, 0, 52, 0, 0, 37, 0, 36, 18, 16, 0, 0)
s = 14: (0, 0, 73, 0, 0, 68, 0, 19, 24, 27, 0, 0)
s = 15: (0, 0, 33, 0, 0, 32, 0, 16, 19, 31, 0, 0)
s = 16: (0, 0, 68, 0, 0, 32, 0, 14, 13, 24, 0, 0)
s = 17: (0, 0, 45, 0, 0, 31, 0, 23, 28, 19, 0, 0)
s = 18: (0, 0, 62, 0, 0, 60, 0, 19, 15, 21, 0, 0)
s = 19: (0, 0, 75, 0, 0, 44, 0, 33, 30, 34, 0, 0)
s = 20: (0, 0, 47, 0, 0, 35, 0, 17, 26, 22, 0, 0)
s = 21: (0, 0, 52, 0, 0, 37, 0, 24, 20, 22, 0, 0)
s = 22: (0, 0, 31, 0, 0, 27, 0, 31, 17, 35, 0, 0)
s = 23: (0, 0, 65, 0, 0, 51, 0, 31, 11, 24, 0, 0)
s = 24: (0, 0, 75, 0, 0, 44, 0, 31, 15, 13, 0, 0)
s = 25: (0, 0, 63, 0, 0, 30, 0, 43, 20, 21, 0, 0)
s = 26: (0, 0, 37, 0, 0, 41, 0, 15, 13, 15, 0, 0)
s = 27: (0, 0, 62, 0, 0, 53, 0, 16, 17, 30, 0, 0)
s = 28: (0, 0, 30, 0, 0, 41, 0, 15, 27, 22, 0, 0)
s = 29: (0, 0, 49, 0, 0, 49, 0, 24, 23, 28, 0, 0)
s = 30: (0, 0, 76, 0, 0, 39, 0, 31, 23, 21, 0, 0)
s = 31: (0, 0, 58, 0, 0, 46, 0, 18, 25, 43, 0, 0)
s = 32: (0, 0, 52, 0, 0, 28, 0, 22, 20, 20, 0, 0)
s = 33: (0, 0, 59, 0, 0, 69, 0, 17, 24, 28, 0, 0)
s = 34: (0, 0, 39, 0, 0, 42, 0, 30, 11, 21, 0, 0)
s = 35: (0, 0, 46, 0, 0, 58, 0, 34, 16, 24, 0, 0)
s = 36: (0, 0, 72, 0, 0, 42, 0, 16, 20, 31, 0, 0)
s = 37: (0, 0, 38, 0, 0, 38, 0, 14, 27, 24, 0, 0)
s = 38: (0, 0, 45, 0, 0, 43, 0, 21, 27, 26, 0, 0)
s = 39: (0, 0, 89, 0, 0, 29, 0, 17, 18, 25, 0, 0)
s = 40: (0, 0, 40, 0, 0, 29, 0, 27, 14, 27, 0, 0)
s = 41: (0, 0, 57, 0, 0, 40, 0, 25, 33, 27, 0, 0)
s = 42: (0, 0, 58, 0, 0, 27, 0, 33, 19, 16, 0, 0)
s = 43: (0, 0, 86, 0, 0, 34, 0, 20, 14, 27, 0, 0)
s = 44: (0, 0, 40, 0, 0, 36, 0, 15, 24, 30, 0, 0)
s = 45: (0, 0, 38, 0, 0, 46, 0, 37, 27, 19, 0, 0)
s = 46: (0, 0, 53, 0, 0, 41, 0, 22, 34, 32, 0, 0)
s = 47: (0, 0, 48, 0, 0, 41, 0, 20, 21, 16, 0, 0)
s = 48: (0, 0, 91, 0, 0, 66, 0, 17, 19, 16, 0, 0)
s = 49: (0, 0, 53, 0, 0, 45, 0, 25, 23, 18, 0, 0)
s = 50: (0, 0, 48, 0, 0, 65, 0, 18, 17, 24, 0, 0)
s = 51: (0, 0, 50, 0, 0, 37, 0, 17, 22, 19, 0, 0)
s = 52: (0, 0, 59, 0, 0, 46, 0, 13, 37, 16, 0, 0)
s = 53: (0, 0, 60, 0, 0, 45, 0, 39, 16, 19, 0, 0)
s = 54: (0, 0, 59, 0, 0, 45, 0, 32, 21, 28, 0, 0)
s = 55: (0, 0, 59, 0, 0, 31, 0, 24, 18, 21, 0, 0)
s = 56: (0, 0, 45, 0, 0, 26, 0, 16, 23, 22, 0, 0)
s = 57: (0, 0, 43, 0, 0, 39, 0, 44, 13, 40, 0, 0)
s = 58: (0, 0, 60, 0, 0, 54, 0, 15, 16, 35, 0, 0)
s = 59: (0, 0, 63, 0, 0, 38, 0, 28, 26, 25, 0, 0)
s = 60: (0, 0, 35, 0, 0, 48, 0, 25, 16, 27, 0, 0)
s = 61: (0, 0, 47, 0, 0, 59, 0, 19, 20, 19, 0, 0)
s = 62: (0, 0, 50, 0, 0, 30, 0, 20, 19, 27, 0, 0)
s = 63: (0, 0, 98, 0, 0, 53, 0, 14, 24, 30, 0, 0)
s = 64: (0, 0, 70, 0, 0, 26, 0, 24, 19, 25, 0, 0)
s = 65: (0, 0, 50, 0, 0, 50, 0, 15, 24, 20, 0, 0)
s = 66: (0, 0, 78, 0, 0, 56, 0, 35, 23, 26, 0, 0)
s = 67: (0, 0, 56, 0, 0, 31, 0, 17, 18, 29, 0, 0)
s = 68: (0, 0, 83, 0, 0, 62, 0, 34, 19, 40, 0, 0)
s = 69: (0, 0, 56, 0, 0, 41, 0, 20, 21, 25, 0, 0)
s = 70: (0, 0, 78, 0, 0, 44, 0, 27, 26, 28, 0, 0)
s = 71: (0, 0, 72, 0, 0, 50, 0, 25, 29, 21, 0, 0)
s = 72: (0, 0, 55, 0, 0, 51, 0, 29, 20, 33, 0, 0)
s = 73: (0, 0, 46, 0, 0, 52, 0, 25, 16, 17, 0, 0)
s = 74: (0, 0, 48, 0, 0, 31, 0, 28, 19, 28, 0, 0)
s = 75: (0, 0, 54, 0, 0, 48, 0, 16, 17, 31, 0, 0)
s = 76: (0, 0, 45, 0, 0, 57, 0, 21, 17, 20, 0, 0)
s = 77: (0, 0, 43, 0, 0, 43, 0, 25, 33, 31, 0, 0)
s = 78: (0, 0, 42, 0, 0, 58, 0, 17, 13, 19, 0, 0)
s = 79: (0, 0, 41, 0, 0, 37, 0, 29, 22, 21, 0, 0)
s = 80: (0, 0, 44, 0, 0, 58, 0, 21, 26, 17, 0, 0)
s = 81: (0, 0, 35, 0, 0, 50, 0, 22, 23, 18, 0, 0)
s = 82: (0, 0, 36, 0, 0, 24, 0, 22, 20, 24, 0, 0)
s = 83: (0, 0, 59, 0, 0, 31, 0, 19, 19, 30, 0, 0)
s = 84: (0, 0, 54, 0, 0, 30, 0, 23, 26, 26, 0, 0)
s = 85: (0, 0, 84, 0, 0, 46, 0, 23, 25, 25, 0, 0)
s = 86: (0, 0, 62, 0, 0, 31, 0, 24, 28, 19, 0, 0)
s = 87: (0, 0, 32, 0, 0, 44, 0, 15, 14, 16, 0, 0)
s = 88: (0, 0, 50, 0, 0, 42, 0, 16, 31, 30, 0, 0)
s = 89: (0, 0, 83, 0, 0, 41, 0, 24, 19, 23, 0, 0)
s = 90: (0, 0, 54, 0, 0, 47, 0, 23, 23, 22, 0, 0)
s = 91: (0, 0, 69, 0, 0, 62, 0, 24, 18, 35, 0, 0)
s = 92: (0, 0, 42, 0, 0, 73, 0, 30, 26, 21, 0, 0)
s = 93: (0, 0, 76, 0, 0, 44, 0, 25, 13, 17, 0, 0)
s = 94: (0, 0, 70, 0, 0, 31, 0, 15, 19, 16, 0, 0)
s = 95: (0, 0, 63, 0, 0, 23, 0, 18, 22, 34, 0, 0)
s = 96: (0, 0, 46, 0, 0, 35, 0, 18, 20, 20, 0, 0)
s = 97: (0, 0, 73, 0, 0, 56, 0, 23, 22, 24, 0, 0)
s = 98: (0, 0, 84, 0, 0, 41, 0, 20, 14, 20, 0, 0)
s = 99: (0, 0, 60, 0, 0, 50, 0, 15, 12, 29, 0, 0)
s = 100: (0, 0, 68, 0, 0, 30, 0, 17, 27, 28, 0, 0)
s = 101: (0, 0, 52, 0, 0, 40, 0, 23, 28, 15, 0, 0)
s = 102: (0, 0, 89, 0, 0, 35, 0, 22, 14, 28, 0, 0)
s = 103: (0, 0, 48, 0, 0, 47, 0, 22, 30, 16, 0, 0)
s = 104: (0, 0, 37, 0, 0, 51, 0, 39, 21, 27, 0, 0)
s = 105: (0, 0, 63, 0, 0, 38, 0, 30, 15, 26, 0, 0)
s = 106: (0, 0, 41, 0, 0, 30, 0, 33, 18, 29, 0, 0)
s = 107: (0, 0, 53, 0, 0, 34, 0, 19, 25, 30, 0, 0)
s = 108: (0, 0, 36, 0, 0, 53, 0, 40, 17, 22, 0, 0)
s = 109: (0, 0, 50, 0, 0, 50, 0, 16, 24, 17, 0, 0)
s = 110: (0, 0, 53, 0, 0, 52, 0, 21, 11, 16, 0, 0)
s = 111: (0, 0, 59, 0, 0, 51, 0, 24, 18, 18, 0, 0)
s = 112: (0, 0, 57, 0, 0, 39, 0, 17, 30, 25, 0, 0)
s = 113: (0, 0, 69, 0, 0, 57, 0, 24, 21, 16, 0, 0)
s = 114: (0, 0, 39, 0, 0, 57, 0, 23, 20, 38, 0, 0)
s = 115: (0, 0, 61, 0, 0, 54, 0, 22, 14, 27, 0, 0)
s = 116: (0, 0, 53, 0, 0, 52, 0, 27, 15, 30, 0, 0)
s = 117: (0, 0, 63, 0, 0, 35, 0, 23, 19, 24, 0, 0)
s = 118: (0, 0, 46, 0, 0, 38, 0, 32, 12, 25, 0, 0)
s = 119: (0, 0, 66, 0, 0, 29, 0, 15, 13, 16, 0, 0)
s = 120: (0, 0, 50, 0, 0, 49, 0, 26, 16, 16, 0, 0)
s = 121: (0, 0, 47, 0, 0, 55, 0, 31, 36, 14, 0, 0)
s = 122: (0, 0, 53, 0, 0, 36, 0, 43, 19, 25, 0, 0)
s = 123: (0, 0, 85, 0, 0, 46, 0, 26, 24, 29, 0, 0)
s = 124: (0, 0, 54, 0, 0, 40, 0, 28, 17, 20, 0, 0)
s = 125: (0, 0, 41, 0, 0, 28, 0, 27, 18, 18, 0, 0)
s = 126: (0, 0, 74, 0, 0, 33, 0, 27, 28, 17, 0, 0)
s = 127: (0, 0, 55, 0, 0, 27, 0, 27, 31, 37, 0, 0)
s = 128: (0, 0, 61, 0, 0, 63, 0, 26, 30, 42, 0, 0)
s = 129: (0, 0, 63, 0, 0, 37, 0, 17, 14, 14, 0, 0)
s = 130: (0, 0, 50, 0, 0, 31, 0, 18, 36, 20, 0, 0)
s = 131: (0, 0, 60, 0, 0, 36, 0, 35, 15, 21, 0, 0)
s = 132: (0, 0, 108, 0, 0, 34, 0, 18, 15, 22, 0, 0)
s = 133: (0, 0, 103, 0, 0, 29, 0, 24, 21, 32, 0, 0)
s = 134: (0, 0, 64, 0, 0, 30, 0, 28, 16, 22, 0, 0)
s = 135: (0, 0, 57, 0, 0, 38, 0, 14, 13, 18, 0, 0)
s = 136: (0, 0, 73, 0, 0, 53, 0, 23, 17, 20, 0, 0)
s = 137: (0, 0, 62, 0, 0, 51, 0, 31, 14, 16, 0, 0)
s = 138: (0, 0, 70, 0, 0, 49, 0, 37, 23, 18, 0, 0)
s = 139: (0, 0, 39, 0, 0, 26, 0, 38, 24, 22, 0, 0)
s = 140: (0, 0, 43, 0, 0, 35, 0, 18, 15, 23, 0, 0)
s = 141: (0, 0, 50, 0, 0, 32, 0, 24, 19, 21, 0, 0)
s = 142: (0, 0, 41, 0, 0, 36, 0, 19, 17, 35, 0, 0)
s = 143: (0, 0, 47, 0, 0, 47, 0, 23, 23, 20, 0, 0)
s = 144: (0, 0, 63, 0, 0, 50, 0, 22, 21, 37, 0, 0)
s = 145: (0, 0, 42, 0, 0, 41, 0, 34, 21, 19, 0, 0)
s = 146: (0, 0, 40, 0, 0, 27, 0, 29, 13, 21, 0, 0)
s = 147: (0, 0, 72, 0, 0, 27, 0, 39, 16, 37, 0, 0)
s = 148: (0, 0, 50, 0, 0, 45, 0, 25, 30, 25, 0, 0)
s = 149: (0, 0, 60, 0, 0, 28, 0, 19, 24, 24, 0, 0)
s = 150: (0, 0, 58, 0, 0, 51, 0, 27, 22, 22, 0, 0)
s = 151: (0, 0, 68, 0, 0, 43, 0, 23, 14, 25, 0, 0)
s = 152: (0, 0, 42, 0, 0, 38, 0, 23, 15, 18, 0, 0)
s = 153: (0, 0, 77, 0, 0, 29, 0, 20, 33, 18, 0, 0)
s = 154: (0, 0, 55, 0, 0, 59, 0, 21, 23, 25, 0, 0)
s = 155: (0, 0, 67, 0, 0, 32, 0, 29, 22, 25, 0, 0)
s = 156: (0, 0, 87, 0, 0, 36, 0, 17, 33, 22, 0, 0)
s = 157: (0, 0, 43, 0, 0, 34, 0, 28, 15, 45, 0, 0)
s = 158: (0, 0, 46, 0, 0, 22, 0, 15, 25, 23, 0, 0)
s = 159: (0, 0, 81, 0, 0, 30, 0, 17, 22, 33, 0, 0)
s = 160: (0, 0, 43, 0, 0, 34, 0, 15, 18, 33, 0, 0)
s = 161: (0, 0, 41, 0, 0, 45, 0, 39, 20, 23, 0, 0)
s = 162: (0, 0, 86, 0, 0, 51, 0, 24, 27, 39, 0, 0)
s = 163: (0, 0, 56, 0, 0, 45, 0, 17, 23, 30, 0, 0)
s = 164: (0, 0, 40, 0, 0, 39, 0, 17, 16, 15, 0, 0)
s = 165: (0, 0, 46, 0, 0, 36, 0, 23, 12, 28, 0, 0)
s = 166: (0, 0, 63, 0, 0, 42, 0, 21, 21, 25, 0, 0)
s = 167: (0, 0, 61, 0, 0, 40, 0, 18, 24, 23, 0, 0)
s = 168: (0, 0, 80, 0, 0, 35, 0, 18, 20, 34, 0, 0)
s = 169: (0, 0, 56, 0, 0, 33, 0, 27, 23, 36, 0, 0)
s = 170: (0, 0, 35, 0, 0, 42, 0, 22, 29, 17, 0, 0)
s = 171: (0, 0, 44, 0, 0, 35, 0, 29, 34, 24, 0, 0)
s = 172: (0, 0, 64, 0, 0, 41, 0, 25, 17, 27, 0, 0)
s = 173: (0, 0, 42, 0, 0, 44, 0, 28, 17, 24, 0, 0)
s = 174: (0, 0, 60, 0, 0, 40, 0, 14, 19, 17, 0, 0)
s = 175: (0, 0, 68, 0, 0, 36, 0, 19, 29, 40, 0, 0)
s = 176: (0, 0, 59, 0, 0, 61, 0, 37, 23, 20, 0, 0)
s = 177: (0, 0, 34, 0, 0, 64, 0, 41, 12, 20, 0, 0)
s = 178: (0, 0, 33, 0, 0, 50, 0, 22, 20, 32, 0, 0)
s = 179: (0, 0, 40, 0, 0, 57, 0, 28, 17, 22, 0, 0)
s = 180: (0, 0, 65, 0, 0, 39, 0, 25, 25, 17, 0, 0)
s = 181: (0, 0, 37, 0, 0, 45, 0, 14, 16, 23, 0, 0)
s = 182: (0, 0, 53, 0, 0, 33, 0, 25, 23, 26, 0, 0)
s = 183: (0, 0, 55, 0, 0, 51, 0, 20, 22, 27, 0, 0)
s = 184: (0, 0, 62, 0, 0, 48, 0, 17, 27, 19, 0, 0)
s = 185: (0, 0, 44, 0, 0, 40, 0, 18, 15, 18, 0, 0)
s = 186: (0, 0, 43, 0, 0, 49, 0, 32, 19, 31, 0, 0)
s = 187: (0, 0, 32, 0, 0, 34, 0, 23, 23, 25, 0, 0)
s = 188: (0, 0, 63, 0, 0, 28, 0, 28, 23, 22, 0, 0)
s = 189: (0, 0, 60, 0, 0, 65, 0, 24, 23, 18, 0, 0)
s = 190: (0, 0, 56, 0, 0, 44, 0, 20, 24, 31, 0, 0)
s = 191: (0, 0, 72, 0, 0, 50, 0, 17, 15, 17, 0, 0)
s = 192: (0, 0, 37, 0, 0, 58, 0, 35, 18, 25, 0, 0)
s = 193: (0, 0, 60, 0, 0, 35, 0, 23, 25, 19, 0, 0)
s = 194: (0, 0, 47, 0, 0, 50, 0, 23, 21, 21, 0, 0)
s = 195: (0, 0, 54, 0, 0, 41, 0, 22, 15, 20, 0, 0)
s = 196: (0, 0, 44, 0, 0, 31, 0, 29, 17, 23, 0, 0)
s = 197: (0, 0, 57, 0, 0, 41, 0, 27, 15, 30, 0, 0)
s = 198: (0, 0, 49, 0, 0, 44, 0, 31, 21, 15, 0, 0)
s = 199: (0, 0, 51, 0, 0, 29, 0, 18, 15, 29, 0, 0)
s = 200: (0, 0, 103, 0, 0, 56, 0, 22, 29, 17, 0, 0)
************************************************************************
ES/LS-VALUES:
jobnr.   ES(i)    LS(i)
------------------------------------------------------------------------
  0        0        0
  1        0       71
  2        0       46
  3        0       50
  4       12       58
  5       12       58
  6        7       80
  7       25       71
  8       32       85
  9       25       80
 10       32       79
 11       41       89
************************************************************************
BIG-M-VALUES:
M1 = 68, M2 = 248
************************************************************************
